20	25	3.13
22 3 1 3 2 5 3 4 3 1 3 2 5 3 4 3 1 3 2 3 3 4 3 23 2 24 2 25 2 2 4 3 5 4 3 1 3 2 3 3 3 3 17 3 18 2 19 3 4 6 9 7 6 8 7 9 8 4 6 4 7 5 8 5 9 5 4 6 4 7 4 8 4 9 4 3 23 2 24 2 25 2 4 10 5 11 5 12 6 13 6 4 10 3 11 4 12 4 13 4 4 10 8 11 9 12 9 13 9 4 10 3 11 3 12 4 13 2 3 14 3 15 3 16 3 3 14 5 15 3 16 5 3 23 2 24 2 25 2 3 17 5 18 6 19 6 3 17 8 18 12 19 10 3 23 3 24 3 25 3 1 20 3
22 3 1 5 2 4 3 5 3 1 5 2 3 3 3 3 1 4 2 4 3 4 3 23 2 24 2 25 2 2 4 3 5 3 3 1 2 2 3 3 3 3 17 2 18 2 19 2 4 6 9 7 9 8 7 9 9 4 6 6 7 5 8 6 9 5 4 6 4 7 4 8 4 9 4 3 23 2 24 2 25 2 4 10 6 11 5 12 6 13 6 4 10 7 11 6 12 7 13 7 4 10 10 11 13 12 10 13 12 4 10 3 11 4 12 3 13 3 3 14 3 15 3 16 2 3 14 3 15 3 16 4 3 23 2 24 2 25 2 3 17 4 18 4 19 4 3 17 6 18 5 19 7 3 23 4 24 4 25 3 1 20 2
22 2 21 3 22 3 2 21 5 22 4 2 21 9 22 8 2 21 5 22 7 3 23 2 24 2 25 2 3 14 5 15 4 16 5 3 17 3 18 4 19 3 4 6 8 7 7 8 8 9 6 4 6 4 7 4 8 4 9 4 4 6 3 7 5 8 4 9 5 3 23 2 24 2 25 2 4 10 6 11 6 12 7 13 6 4 10 7 11 6 12 7 13 7 4 10 11 11 10 12 10 13 13 4 10 3 11 4 12 4 13 5 3 14 3 15 3 16 4 3 14 3 15 4 16 4 3 23 2 24 2 25 2 3 17 5 18 7 19 6 3 17 8 18 9 19 8 3 23 4 24 4 25 4 1 20 3
22 3 1 4 2 4 3 3 3 1 6 2 5 3 6 3 1 5 2 5 3 4 3 23 2 24 2 25 2 2 4 3 5 3 3 1 2 2 2 3 2 3 17 3 18 3 19 3 4 6 5 7 6 8 6 9 5 4 6 4 7 4 8 3 9 5 4 6 3 7 3 8 3 9 4 3 23 2 24 2 25 2 4 10 4 11 4 12 3 13 4 4 10 3 11 4 12 4 13 2 4 10 5 11 5 12 6 13 5 4 10 5 11 4 12 4 13 5 3 14 5 15 4 16 4 3 14 4 15 5 16 3 3 23 2 24 2 25 2 3 17 7 18 7 19 7 3 17 8 18 8 19 7 3 23 4 24 4 25 3 1 20 2
22 2 21 3 22 3 2 21 3 22 3 2 21 7 22 6 2 21 6 22 6 3 23 2 24 2 25 2 3 14 3 15 3 16 3 3 17 3 18 3 19 3 4 6 6 7 5 8 7 9 6 4 6 4 7 4 8 3 9 4 4 6 3 7 3 8 3 9 4 3 23 2 24 2 25 2 4 10 3 11 4 12 4 13 4 4 10 4 11 4 12 4 13 5 4 10 10 11 12 12 10 13 14 4 10 5 11 4 12 4 13 5 3 14 4 15 4 16 3 3 14 4 15 4 16 4 3 23 2 24 2 25 2 3 17 4 18 4 19 6 3 17 7 18 7 19 6 3 23 4 24 3 25 5 1 20 3
22 3 1 4 2 4 3 4 3 1 5 2 4 3 5 3 1 4 2 5 3 3 3 23 2 24 2 25 2 2 4 2 5 2 3 1 2 2 2 3 2 3 17 2 18 2 19 2 4 6 7 7 8 8 8 9 7 4 6 3 7 3 8 4 9 4 4 6 4 7 4 8 5 9 4 3 23 2 24 2 25 2 4 10 6 11 5 12 4 13 6 4 10 5 11 5 12 5 13 5 4 10 3 11 3 12 3 13 3 4 10 4 11 3 12 3 13 3 3 14 3 15 4 16 3 3 14 3 15 3 16 3 3 23 2 24 2 25 2 3 17 4 18 5 19 5 3 17 8 18 10 19 7 3 23 3 24 3 25 3 1 20 2
22 2 21 2 22 2 2 21 3 22 3 2 21 9 22 8 2 21 6 22 4 3 23 2 24 2 25 2 3 14 5 15 4 16 4 3 17 3 18 3 19 3 4 6 8 7 8 8 8 9 9 4 6 4 7 5 8 5 9 5 4 6 3 7 3 8 3 9 3 3 23 2 24 2 25 2 4 10 5 11 4 12 3 13 4 4 10 4 11 4 12 4 13 4 4 10 5 11 5 12 4 13 5 4 10 5 11 6 12 5 13 7 3 14 3 15 3 16 3 3 14 3 15 2 16 4 3 23 2 24 2 25 2 3 17 5 18 6 19 6 3 17 7 18 11 19 8 3 23 4 24 4 25 5 1 20 3
22 3 1 5 2 5 3 6 3 1 7 2 6 3 6 3 1 4 2 3 3 4 3 23 2 24 2 25 2 2 4 3 5 3 3 1 2 2 2 3 2 3 17 3 18 4 19 2 4 6 7 7 8 8 9 9 8 4 6 4 7 4 8 5 9 4 4 6 5 7 3 8 4 9 4 3 23 2 24 2 25 2 4 10 5 11 6 12 4 13 5 4 10 4 11 5 12 4 13 5 4 10 3 11 3 12 3 13 3 4 10 4 11 3 12 4 13 4 3 14 4 15 4 16 4 3 14 4 15 3 16 3 3 23 2 24 2 25 2 3 17 5 18 5 19 5 3 17 8 18 7 19 6 3 23 5 24 4 25 4 1 20 3
22 2 21 2 22 2 2 21 3 22 3 2 21 9 22 9 2 21 6 22 6 3 23 2 24 2 25 2 3 14 4 15 4 16 4 3 17 3 18 3 19 3 4 6 6 7 5 8 5 9 5 4 6 4 7 3 8 4 9 4 4 6 4 7 4 8 5 9 4 3 23 2 24 2 25 2 4 10 4 11 5 12 4 13 5 4 10 4 11 5 12 4 13 5 4 10 12 11 11 12 13 13 12 4 10 6 11 4 12 4 13 5 3 14 4 15 3 16 3 3 14 3 15 4 16 4 3 23 2 24 2 25 2 3 17 3 18 3 19 5 3 17 7 18 5 19 6 3 23 3 24 4 25 4 1 20 2
22 3 1 5 2 6 3 6 3 1 5 2 5 3 6 3 1 5 2 5 3 3 3 23 1 24 1 25 1 2 4 2 5 3 3 1 2 2 2 3 2 3 17 4 18 3 19 3 4 6 5 7 5 8 6 9 5 4 6 4 7 4 8 4 9 4 4 6 4 7 4 8 4 9 4 3 23 2 24 2 25 2 4 10 5 11 4 12 4 13 3 4 10 5 11 5 12 6 13 5 4 10 9 11 9 12 11 13 8 4 10 3 11 3 12 3 13 3 3 14 4 15 4 16 4 3 14 3 15 4 16 4 3 23 2 24 2 25 2 3 17 7 18 7 19 6 3 17 9 18 10 19 8 3 23 4 24 4 25 3 1 20 2
22 3 1 5 2 3 3 4 3 1 5 2 4 3 5 3 1 3 2 3 3 3 3 23 2 24 2 25 2 2 4 3 5 3 3 1 2 2 2 3 2 3 17 2 18 2 19 2 4 6 7 7 6 8 5 9 6 4 6 5 7 4 8 4 9 4 4 6 4 7 4 8 4 9 4 3 23 2 24 2 25 2 4 10 5 11 5 12 5 13 5 4 10 6 11 4 12 5 13 5 4 10 4 11 6 12 5 13 5 4 10 4 11 5 12 4 13 4 3 14 3 15 4 16 4 3 14 3 15 3 16 3 3 23 2 24 2 25 2 3 17 5 18 4 19 4 3 17 7 18 7 19 7 3 23 3 24 3 25 4 1 20 2
22 2 21 2 22 2 2 21 3 22 3 2 21 6 22 8 2 21 4 22 4 3 23 2 24 2 25 2 3 14 4 15 4 16 4 3 17 3 18 3 19 3 4 6 5 7 6 8 5 9 6 4 6 4 7 4 8 4 9 3 4 6 3 7 3 8 4 9 2 3 23 2 24 2 25 2 4 10 6 11 7 12 5 13 5 4 10 5 11 5 12 5 13 4 4 10 9 11 8 12 7 13 9 4 10 4 11 5 12 6 13 5 3 14 3 15 3 16 3 3 14 3 15 3 16 3 3 23 2 24 2 25 2 3 17 6 18 6 19 5 3 17 9 18 10 19 12 3 23 4 24 2 25 3 1 20 3
22 2 21 2 22 2 2 21 4 22 4 2 21 7 22 8 2 21 5 22 4 3 23 2 24 2 25 2 3 14 3 15 3 16 3 3 17 4 18 3 19 3 4 6 9 7 9 8 8 9 8 4 6 6 7 6 8 4 9 4 4 6 3 7 3 8 3 9 3 3 23 2 24 2 25 2 4 10 4 11 3 12 3 13 4 4 10 5 11 6 12 4 13 5 4 10 9 11 9 12 7 13 9 4 10 5 11 4 12 5 13 5 3 14 4 15 3 16 3 3 14 3 15 3 16 3 3 23 2 24 2 25 2 3 17 5 18 5 19 6 3 17 11 18 10 19 9 3 23 3 24 3 25 3 1 20 2
22 2 21 2 22 2 2 21 3 22 3 2 21 8 22 8 2 21 6 22 6 3 23 2 24 2 25 2 3 14 4 15 4 16 4 3 17 2 18 2 19 2 4 6 7 7 6 8 6 9 6 4 6 3 7 4 8 5 9 4 4 6 3 7 3 8 3 9 3 3 23 2 24 2 25 2 4 10 4 11 4 12 4 13 5 4 10 4 11 5 12 5 13 6 4 10 9 11 8 12 9 13 9 4 10 5 11 6 12 4 13 5 3 14 5 15 4 16 4 3 14 3 15 4 16 3 3 23 2 24 2 25 2 3 17 6 18 6 19 6 3 17 10 18 9 19 10 3 23 3 24 3 25 3 1 20 2
22 3 1 4 2 5 3 5 3 1 6 2 6 3 4 3 1 3 2 3 3 3 3 23 2 24 2 25 2 2 4 3 5 3 3 1 2 2 2 3 2 3 17 3 18 3 19 3 4 6 8 7 8 8 7 9 9 4 6 5 7 4 8 5 9 5 4 6 2 7 3 8 3 9 3 3 23 2 24 2 25 2 4 10 7 11 5 12 7 13 7 4 10 4 11 6 12 5 13 5 4 10 6 11 8 12 8 13 9 4 10 4 11 5 12 4 13 4 3 14 3 15 3 16 2 3 14 4 15 4 16 3 3 23 2 24 2 25 2 3 17 5 18 6 19 5 3 17 10 18 10 19 12 3 23 5 24 4 25 5 1 20 3
22 3 1 4 2 5 3 3 3 1 5 2 7 3 6 3 1 3 2 4 3 3 3 23 2 24 2 25 2 2 4 2 5 2 3 1 3 2 3 3 3 3 17 2 18 2 19 2 4 6 8 7 7 8 9 9 7 4 6 5 7 4 8 6 9 4 4 6 5 7 4 8 4 9 4 3 23 2 24 2 25 2 4 10 5 11 5 12 6 13 5 4 10 4 11 6 12 5 13 5 4 10 10 11 12 12 11 13 9 4 10 4 11 4 12 5 13 3 3 14 3 15 3 16 3 3 14 2 15 2 16 2 3 23 2 24 2 25 2 3 17 5 18 6 19 5 3 17 11 18 9 19 11 3 23 5 24 4 25 4 1 20 2
22 3 1 5 2 6 3 5 3 1 5 2 5 3 7 3 1 5 2 5 3 4 3 23 1 24 1 25 1 2 4 2 5 2 3 1 3 2 3 3 3 3 17 2 18 2 19 2 4 6 7 7 8 8 7 9 8 4 6 7 7 6 8 6 9 6 4 6 3 7 3 8 3 9 3 3 23 2 24 2 25 2 4 10 5 11 5 12 4 13 6 4 10 5 11 7 12 7 13 7 4 10 10 11 13 12 14 13 12 4 10 5 11 6 12 5 13 5 3 14 3 15 3 16 3 3 14 3 15 3 16 3 3 23 2 24 2 25 2 3 17 5 18 4 19 5 3 17 9 18 9 19 7 3 23 4 24 3 25 4 1 20 2
22 3 1 4 2 3 3 4 3 1 3 2 4 3 4 3 1 5 2 4 3 5 3 23 2 24 2 25 2 2 4 3 5 3 3 1 3 2 3 3 3 3 17 3 18 3 19 3 4 6 9 7 9 8 7 9 8 4 6 5 7 4 8 5 9 5 4 6 3 7 3 8 4 9 3 3 23 2 24 2 25 2 4 10 5 11 5 12 5 13 5 4 10 3 11 3 12 2 13 4 4 10 4 11 4 12 4 13 4 4 10 4 11 4 12 3 13 4 3 14 4 15 4 16 4 3 14 4 15 4 16 4 3 23 2 24 2 25 2 3 17 4 18 4 19 4 3 17 5 18 5 19 7 3 23 3 24 3 25 5 1 20 2
22 3 1 3 2 4 3 4 3 1 6 2 6 3 6 3 1 5 2 5 3 3 3 23 1 24 1 25 1 2 4 3 5 4 3 1 2 2 2 3 2 3 17 2 18 2 19 2 4 6 8 7 7 8 7 9 8 4 6 6 7 6 8 6 9 6 4 6 3 7 3 8 3 9 3 3 23 2 24 2 25 2 4 10 6 11 5 12 5 13 5 4 10 6 11 7 12 5 13 6 4 10 9 11 9 12 7 13 11 4 10 4 11 3 12 4 13 3 3 14 4 15 3 16 5 3 14 5 15 3 16 3 3 23 2 24 2 25 2 3 17 3 18 3 19 4 3 17 5 18 6 19 5 3 23 3 24 3 25 3 1 20 4
22 3 1 5 2 5 3 5 3 1 4 2 4 3 4 3 1 3 2 3 3 3 3 23 2 24 2 25 2 2 4 2 5 2 3 1 3 2 3 3 3 3 17 2 18 2 19 2 4 6 8 7 9 8 9 9 9 4 6 6 7 4 8 5 9 5 4 6 3 7 4 8 4 9 4 3 23 2 24 2 25 2 4 10 5 11 3 12 4 13 3 4 10 5 11 4 12 3 13 3 4 10 10 11 11 12 7 13 9 4 10 5 11 5 12 3 13 4 3 14 3 15 2 16 3 3 14 5 15 4 16 4 3 23 2 24 2 25 2 3 17 5 18 5 19 4 3 17 6 18 7 19 7 3 23 3 24 3 25 2 1 20 2
